unsat
(forall ((A (_ BitVec 16))
         (B (_ BitVec 16))
         (C (_ BitVec 16))
         (D (_ BitVec 16))
         (E (_ BitVec 16))
         (F (_ BitVec 16))
         (G (_ BitVec 16))
         (H (_ BitVec 16))
         (I (_ BitVec 128))
         (J (_ BitVec 32))
         (K (_ BitVec 32))
         (L (_ BitVec 32))
         (M (_ BitVec 1))
         (N (_ BitVec 32))
         (O (_ BitVec 9))
         (P (_ BitVec 1))
         (Q (_ BitVec 20))
         (R (_ BitVec 32))
         (S (_ BitVec 16))
         (T (_ BitVec 1))
         (U (_ BitVec 16))
         (V (_ BitVec 72))
         (W (_ BitVec 16))
         (X (_ BitVec 36))
         (Y (_ BitVec 16))
         (Z (_ BitVec 32))
         (A1 (_ BitVec 32))
         (B1 (_ BitVec 16))
         (C1 (_ BitVec 9))
         (D1 (_ BitVec 16))
         (E1 (_ BitVec 1))
         (F1 (_ BitVec 16))
         (G1 (_ BitVec 32))
         (H1 (_ BitVec 1))
         (I1 (_ BitVec 16))
         (J1 (_ BitVec 18))
         (K1 (_ BitVec 16))
         (L1 (_ BitVec 1))
         (M1 (_ BitVec 16))
         (N1 (_ BitVec 16))
         (O1 (_ BitVec 1))
         (P1 (_ BitVec 1))
         (Q1 (_ BitVec 1))
         (R1 (_ BitVec 16))
         (S1 (_ BitVec 32))
         (T1 (_ BitVec 16))
         (U1 (_ BitVec 1))
         (V1 (_ BitVec 16))
         (W1 (_ BitVec 1))
         (X1 (_ BitVec 32))
         (Y1 (_ BitVec 1))
         (Z1 (_ BitVec 128))
         (A2 (_ BitVec 1))
         (B2 (_ BitVec 16))
         (C2 (_ BitVec 32))
         (D2 (_ BitVec 16))
         (E2 (_ BitVec 32))
         (F2 (_ BitVec 16))
         (G2 (_ BitVec 16))
         (H2 (_ BitVec 1))
         (I2 (_ BitVec 16))
         (J2 (_ BitVec 16))
         (K2 (_ BitVec 16))
         (L2 (_ BitVec 32))
         (M2 (_ BitVec 16))
         (N2 (_ BitVec 1))
         (O2 (_ BitVec 16))
         (P2 (_ BitVec 32))
         (Q2 (_ BitVec 16))
         (R2 (_ BitVec 1))
         (S2 (_ BitVec 64))
         (T2 (_ BitVec 1))
         (U2 (_ BitVec 32)))
  (! (let ((a!1 (or (= R2 #b1)
                    ((_ bit2bool 4) P2)
                    (= N2 #b0)
                    (= H1 #b0)
                    (not ((_ bit2bool 5) P2))
                    (not (= ((_ extract 5 3) L2) #b101))
                    (not ((_ bit2bool 0) L2))
                    (not ((_ bit2bool 3) P2))))
           (a!2 (or ((_ bit2bool 4) K)
                    (= T #b0)
                    (= M #b0)
                    (not ((_ bit2bool 5) L))
                    (not ((_ bit2bool 3) L))
                    (not (= ((_ extract 0 0) L) #b1))
                    (not ((_ bit2bool 3) K))
                    (not ((_ bit2bool 5) K))
                    (not (= R2 #b0))
                    (= ((_ extract 4 4) L) #b1)))
           (a!3 (or (= R2 #b1)
                    ((_ bit2bool 4) G1)
                    (= Q1 #b0)
                    (= T #b0)
                    (not ((_ bit2bool 3) G1))
                    (not ((_ bit2bool 5) G1))
                    (not (= ((_ extract 5 3) K) #b101))
                    (not (= ((_ extract 0 0) K) #b1))))
           (a!4 (or (= R2 #b1)
                    ((_ bit2bool 2) N)
                    ((_ bit2bool 4) N)
                    (= E1 #b0)
                    (not ((_ bit2bool 5) N))
                    (= W1 #b0)
                    (not ((_ bit2bool 0) C2))
                    (not (= ((_ extract 5 3) C2) #b101))))
           (a!5 (or (= R2 #b1)
                    ((_ bit2bool 2) P2)
                    ((_ bit2bool 4) P2)
                    (= N2 #b0)
                    (= H1 #b0)
                    (not ((_ bit2bool 5) P2))
                    (not (= ((_ extract 5 3) L2) #b101))
                    (not ((_ bit2bool 0) L2))))
           (a!6 (or ((_ bit2bool 2) K)
                    ((_ bit2bool 4) K)
                    (= T #b0)
                    (= M #b0)
                    (not ((_ bit2bool 5) L))
                    (not ((_ bit2bool 3) L))
                    (not (= ((_ extract 0 0) L) #b1))
                    (not ((_ bit2bool 5) K))
                    (not (= R2 #b0))
                    (= ((_ extract 4 4) L) #b1)))
           (a!7 (or (= R2 #b1)
                    ((_ bit2bool 2) G1)
                    ((_ bit2bool 4) G1)
                    (= Q1 #b0)
                    (= T #b0)
                    (= ((_ extract 0 0) K) #b0)
                    (not ((_ bit2bool 5) G1))
                    (not (= ((_ extract 5 3) K) #b101))))
           (a!8 (or (not (= H2 #b0))
                    (not ((_ bit2bool 7) C1))
                    (not (= ((_ extract 5 0) N) #b011100))))
           (a!9 (or (= R2 #b1)
                    ((_ bit2bool 5) N)
                    (= E1 #b0)
                    (not ((_ bit2bool 4) N))
                    (not ((_ bit2bool 2) N))
                    (not ((_ bit2bool 3) N))
                    (= W1 #b0)
                    (not ((_ bit2bool 0) C2))
                    (not (= ((_ extract 5 3) C2) #b101))))
           (a!10 (or (= R2 #b1)
                     ((_ bit2bool 5) P2)
                     (= N2 #b0)
                     (= H1 #b0)
                     (not (= ((_ extract 5 3) L2) #b101))
                     (not ((_ bit2bool 4) P2))
                     (not ((_ bit2bool 0) L2))
                     (not ((_ bit2bool 3) P2))
                     (not ((_ bit2bool 2) P2))))
           (a!11 (or (= R2 #b1)
                     ((_ bit2bool 5) K)
                     (= T #b0)
                     (= M #b0)
                     (= ((_ extract 0 0) L) #b0)
                     (not (= ((_ extract 5 3) L) #b101))
                     (not ((_ bit2bool 4) K))
                     (not ((_ bit2bool 3) K))
                     (not ((_ bit2bool 2) K))))
           (a!12 (or (not (= H2 #b0))
                     ((_ bit2bool 5) G1)
                     (= Q1 #b0)
                     (= T #b0)
                     (= ((_ extract 0 0) K) #b0)
                     (not ((_ bit2bool 4) G1))
                     (not ((_ bit2bool 2) G1))
                     (not ((_ bit2bool 3) G1))
                     (not (= ((_ extract 5 3) K) #b101))))
           (a!13 (or (= R2 #b1)
                     (= P #b0)
                     ((_ bit2bool 5) R)
                     ((_ bit2bool 4) G1)
                     (= Q1 #b0)
                     (not ((_ bit2bool 3) G1))
                     (not ((_ bit2bool 5) G1))
                     (not ((_ bit2bool 4) R))
                     (not ((_ bit2bool 3) R))
                     (not ((_ bit2bool 2) R))
                     (not (= ((_ extract 0 0) G1) #b1)))))
     (let ((a!14 (and (or (= U1 #b1) (= P1 #b0))
                      (or (= R2 #b1)
                          (not ((_ bit2bool 8) C1))
                          (not ((_ bit2bool 5) C2)))
                      (or (= R2 #b1)
                          (not ((_ bit2bool 7) C1))
                          (not ((_ bit2bool 5) N)))
                      (or (= R2 #b1)
                          (not ((_ bit2bool 6) C1))
                          (not ((_ bit2bool 5) L2)))
                      (or (= R2 #b1)
                          (not ((_ bit2bool 5) C1))
                          (not ((_ bit2bool 5) P2)))
                      (or (= R2 #b1)
                          (not ((_ bit2bool 4) C1))
                          (not ((_ bit2bool 5) L)))
                      (or (= R2 #b1)
                          ((_ bit2bool 4) C2)
                          (= Y1 #b1)
                          (= W1 #b0)
                          (not ((_ bit2bool 5) C2))
                          (not ((_ bit2bool 3) C2)))
                      (or (= R2 #b1)
                          ((_ bit2bool 4) N)
                          ((_ bit2bool 4) C2)
                          (= E1 #b0)
                          (not ((_ bit2bool 5) N))
                          (not ((_ bit2bool 3) N))
                          (= W1 #b0)
                          (not ((_ bit2bool 5) C2))
                          (not ((_ bit2bool 0) C2))
                          (not ((_ bit2bool 3) C2)))
                      (or (= R2 #b1)
                          ((_ bit2bool 4) N)
                          ((_ bit2bool 4) L2)
                          (= H1 #b0)
                          (= E1 #b0)
                          (not ((_ bit2bool 5) N))
                          (not ((_ bit2bool 0) N))
                          (not ((_ bit2bool 3) N))
                          (not ((_ bit2bool 5) L2))
                          (not ((_ bit2bool 3) L2)))
                      (or (= R2 #b1)
                          ((_ bit2bool 4) L)
                          ((_ bit2bool 4) P2)
                          (= M #b0)
                          (= N2 #b0)
                          (not ((_ bit2bool 5) L))
                          (not ((_ bit2bool 3) L))
                          (not ((_ bit2bool 5) P2))
                          (not ((_ bit2bool 3) P2))
                          (not ((_ bit2bool 0) P2)))
                      a!1
                      a!2
                      a!3
                      (or (= R2 #b1)
                          (= P #b0)
                          ((_ bit2bool 4) R)
                          ((_ bit2bool 4) G1)
                          (= Q1 #b0)
                          (= ((_ extract 0 0) G1) #b0)
                          (not ((_ bit2bool 3) G1))
                          (not ((_ bit2bool 5) G1))
                          (not ((_ bit2bool 5) R))
                          (not ((_ bit2bool 3) R)))
                      (or (= R2 #b1)
                          ((_ bit2bool 2) C2)
                          ((_ bit2bool 4) C2)
                          (= Y1 #b1)
                          (= W1 #b0)
                          (not ((_ bit2bool 5) C2)))
                      a!4
                      (or (= R2 #b1)
                          ((_ bit2bool 4) N)
                          ((_ bit2bool 2) L2)
                          ((_ bit2bool 4) L2)
                          (= H1 #b0)
                          (= E1 #b0)
                          (not ((_ bit2bool 5) N))
                          (not ((_ bit2bool 0) N))
                          (not ((_ bit2bool 3) N))
                          (not ((_ bit2bool 5) L2)))
                      a!5
                      (or (= R2 #b1)
                          ((_ bit2bool 2) L)
                          ((_ bit2bool 4) L)
                          ((_ bit2bool 4) P2)
                          (= M #b0)
                          (= N2 #b0)
                          (not ((_ bit2bool 5) L))
                          (not ((_ bit2bool 5) P2))
                          (not ((_ bit2bool 3) P2))
                          (not ((_ bit2bool 0) P2)))
                      a!6
                      a!7
                      (or (= R2 #b1)
                          (= P #b0)
                          ((_ bit2bool 2) R)
                          ((_ bit2bool 4) R)
                          ((_ bit2bool 4) G1)
                          (= Q1 #b0)
                          (= ((_ extract 0 0) G1) #b0)
                          (not ((_ bit2bool 3) G1))
                          (not ((_ bit2bool 5) G1))
                          (not ((_ bit2bool 5) R)))
                      (or (= R2 #b1)
                          (not ((_ bit2bool 8) C1))
                          (not ((_ bit2bool 3) C2))
                          (not ((_ bit2bool 2) C2)))
                      (or (= R2 #b1)
                          ((_ bit2bool 0) L2)
                          ((_ bit2bool 1) L2)
                          (not ((_ bit2bool 6) C1))
                          (not ((_ bit2bool 4) L2))
                          (not ((_ bit2bool 3) L2))
                          (not ((_ bit2bool 2) L2)))
                      a!8
                      (or (= R2 #b1)
                          ((_ bit2bool 0) L)
                          ((_ bit2bool 1) L)
                          (not ((_ bit2bool 4) C1))
                          (not ((_ bit2bool 4) L))
                          (not ((_ bit2bool 3) L))
                          (not ((_ bit2bool 2) L)))
                      (or (= R2 #b1)
                          ((_ bit2bool 0) P2)
                          ((_ bit2bool 1) P2)
                          (not ((_ bit2bool 5) C1))
                          (not ((_ bit2bool 4) P2))
                          (not ((_ bit2bool 3) P2))
                          (not ((_ bit2bool 2) P2)))
                      (or (= R2 #b1)
                          ((_ bit2bool 5) C2)
                          (= Y1 #b1)
                          (= W1 #b0)
                          (not ((_ bit2bool 4) C2))
                          (not ((_ bit2bool 3) C2))
                          (not ((_ bit2bool 2) C2)))
                      a!9
                      (or (= R2 #b1)
                          ((_ bit2bool 4) N)
                          ((_ bit2bool 5) L2)
                          (= H1 #b0)
                          (= E1 #b0)
                          (not ((_ bit2bool 5) N))
                          (not ((_ bit2bool 0) N))
                          (not ((_ bit2bool 3) N))
                          (not ((_ bit2bool 4) L2))
                          (not ((_ bit2bool 3) L2))
                          (not ((_ bit2bool 2) L2)))
                      a!10
                      (or (= R2 #b1)
                          ((_ bit2bool 5) L)
                          ((_ bit2bool 4) P2)
                          (= M #b0)
                          (= N2 #b0)
                          (not ((_ bit2bool 4) L))
                          (not ((_ bit2bool 3) L))
                          (not ((_ bit2bool 2) L))
                          (not ((_ bit2bool 5) P2))
                          (not ((_ bit2bool 3) P2))
                          (not ((_ bit2bool 0) P2)))
                      a!11
                      a!12
                      a!13
                      (or (= P #b0)
                          (not (= H2 #b0))
                          (= X1 A1)
                          (not ((_ bit2bool 5) R))
                          (not ((_ bit2bool 3) R))
                          (not ((_ bit2bool 0) R))
                          (= ((_ extract 4 4) R) #b1)))))
       (= (INV!slice!1 A
                       B
                       C
                       D
                       E
                       F
                       G
                       H
                       I
                       J
                       K
                       L
                       M
                       N
                       O
                       P
                       Q
                       R
                       S
                       T
                       U
                       V
                       W
                       X
                       Y
                       Z
                       A1
                       B1
                       C1
                       D1
                       E1
                       F1
                       G1
                       H1
                       I1
                       J1
                       K1
                       L1
                       M1
                       N1
                       O1
                       P1
                       Q1
                       R1
                       S1
                       T1
                       U1
                       V1
                       W1
                       X1
                       Y1
                       Z1
                       A2
                       B2
                       C2
                       D2
                       E2
                       F2
                       G2
                       H2
                       I2
                       J2
                       K2
                       L2
                       M2
                       N2
                       O2
                       P2
                       Q2
                       R2
                       S2
                       T2
                       U2)
          a!14)))
     :weight 0))
